% 1st line
o10 = "-";
o90 = "+";
x100 = 1;

% 2nd line
x01 = 2;
x81 = 2;
x121 = 4;

% 3rd line : nothing

% 4th line
o53 = "+";
x63 = 2;
x123 = 9;

% 5th line
o04 = "*";
o44 = "+";
o84 = "*";
o124 = "*";

% 6th line
o15 = "+";
x45 = 9;
x85 = 4;
o95 = "+";

% 7th line : nothing

% 8th line
x27 = 2;
x107 = 2;

% 9th line
o28 = "+";
o108 = "-";

% 10th line
o19 = "-";
x49 = 2;
o99 = "-";

% 11th line
x010 = 1;
x410 = 1;
x810 = 1;
x1210 = 1;

% 12th line : nothing

% 13th line
x012 = 7;
o512 = "+";
x612 = 1;
x1212 = 9;

% 14th line
o013 = "*";
o413 = "+";
o813 = "*";
o1213 = "+";

% 15th line
o114 = "+";
x214 = 3;
o914 = "+";